\ENCODING=ISO-8859-1
\Problem name: ilog.cplex

Maximize
 obj: flow
Subject To
 c1:   f_0_6_0 + f_0_6_1 <= 200
 c3:   f_0_7_0 + f_0_7_1 <= 600
 c5:   f_0_8_0 + f_0_8_1 <= 150
 c7:   f_0_9_0 + f_0_9_1 <= 150
 c9:   f_1_7_0 + f_1_7_1 <= 150
 c11:  f_1_8_0 + f_1_8_1 <= 150
 c13:  f_1_9_0 + f_1_9_1 <= 600
 c15:  f_2_8_0 + f_2_8_1 <= 150
 c17:  f_2_9_0 + f_2_9_1 <= 300
 c19:  f_3_9_0 + f_3_9_1 <= 200
 c21:  f_5_11_0 + f_5_11_1 <= 200
 c23:  f_5_12_0 + f_5_12_1 <= 600
 c25:  f_5_13_0 + f_5_13_1 <= 150
 c27:  f_5_14_0 + f_5_14_1 <= 150
 c29:  f_6_12_0 + f_6_12_1 <= 150
 c31:  f_6_13_0 + f_6_13_1 <= 150
 c33:  f_6_14_0 + f_6_14_1 <= 600
 c35:  f_7_13_0 + f_7_13_1 <= 150
 c37:  f_7_14_0 + f_7_14_1 <= 300
 c39:  f_8_14_0 + f_8_14_1 <= 200
 c41:  f_10_16_0 + f_10_16_1 <= 200
 c43:  f_10_17_0 + f_10_17_1 <= 600
 c45:  f_10_18_0 + f_10_18_1 <= 150
 c47:  f_10_19_0 + f_10_19_1 <= 150
 c49:  f_11_17_0 + f_11_17_1 <= 150
 c51:  f_11_18_0 + f_11_18_1 <= 150
 c53:  f_11_19_0 + f_11_19_1 <= 600
 c55:  f_12_18_0 + f_12_18_1 <= 150
 c57:  f_12_19_0 + f_12_19_1 <= 300
 c59:  f_13_19_0 + f_13_19_1 <= 200
 c61:  f_15_21_0 + f_15_21_1 <= 200
 c63:  f_15_22_0 + f_15_22_1 <= 600
 c65:  f_15_23_0 + f_15_23_1 <= 150
 c67:  f_15_24_0 + f_15_24_1 <= 150
 c69:  f_16_22_0 + f_16_22_1 <= 150
 c71:  f_16_23_0 + f_16_23_1 <= 150
 c73:  f_16_24_0 + f_16_24_1 <= 600
 c75:  f_17_23_0 + f_17_23_1 <= 150
 c77:  f_17_24_0 + f_17_24_1 <= 300
 c79:  f_18_24_0 + f_18_24_1 <= 200
 c81:  f_4_29_0 <= 10000
 c83:  f_25_0_0 <= 10000
 c85:  f_9_29_0 <= 10000
 c87:  f_25_5_0 <= 10000
 c89:  f_14_29_0 <= 10000
 c91:  f_25_10_0 <= 10000
 c93:  f_19_29_0 <= 10000
 c95:  f_25_15_0 <= 10000
 c97:  f_24_29_0 <= 10000
 c99:  f_25_20_0 <= 10000
 c101: f_3_28_1 <= 10000
 c103: f_26_1_1 <= 10000
 c105: f_8_28_1 <= 10000
 c107: f_26_6_1 <= 10000
 c109: f_13_28_1 <= 10000
 c111: f_26_11_1 <= 10000
 c113: f_18_28_1 <= 10000
 c115: f_26_16_1 <= 10000
 c117: f_23_28_1 <= 10000
 c119: f_26_21_1 <= 10000
 c121: f_0_6_0 + f_0_7_0 + f_0_8_0 + f_0_9_0 - f_25_0_0  = 0
 c123: f_1_7_0 + f_1_8_0 + f_1_9_0 - f_26_1_0  = 0
 c125: f_2_8_0 + f_2_9_0  = 0
 c127: f_3_9_0 + f_3_28_0  = 0
 c129: f_4_29_0  = 0
 c131: f_5_11_0 + f_5_12_0 + f_5_13_0 + f_5_14_0 - f_25_5_0  = 0
 c133: - f_0_6_0 + f_6_12_0 + f_6_13_0 + f_6_14_0 - f_26_6_0  = 0
 c135: - f_0_7_0 - f_1_7_0 + f_7_13_0 + f_7_14_0  = 0
 c137: - f_0_8_0 - f_1_8_0 - f_2_8_0 + f_8_14_0 + f_8_28_0  = 0
 c139: - f_0_9_0 - f_1_9_0 - f_2_9_0 - f_3_9_0 + f_9_29_0  = 0
 c141: f_10_16_0 + f_10_17_0 + f_10_18_0 + f_10_19_0 - f_25_10_0  = 0
 c143: - f_5_11_0 + f_11_17_0 + f_11_18_0 + f_11_19_0 - f_26_11_0  = 0
 c145: - f_5_12_0 - f_6_12_0 + f_12_18_0 + f_12_19_0  = 0
 c147: - f_5_13_0 - f_6_13_0 - f_7_13_0 + f_13_19_0 + f_13_28_0  = 0
 c149: - f_5_14_0 - f_6_14_0 - f_7_14_0 - f_8_14_0 + f_14_29_0  = 0
 c151: f_15_21_0 + f_15_22_0 + f_15_23_0 + f_15_24_0 - f_25_15_0  = 0
 c153: - f_10_16_0 + f_16_22_0 + f_16_23_0 + f_16_24_0 - f_26_16_0  = 0
 c155: - f_10_17_0 - f_11_17_0 + f_17_23_0 + f_17_24_0  = 0
 c157: - f_10_18_0 - f_11_18_0 - f_12_18_0 + f_18_24_0 + f_18_28_0  = 0
 c159: - f_10_19_0 - f_11_19_0 - f_12_19_0 - f_13_19_0 + f_19_29_0  = 0
 c161: - f_25_20_0  = 0
 c163: - f_15_21_0 - f_26_21_0  = 0
 c165: - f_15_22_0 - f_16_22_0  = 0
 c167: - f_15_23_0 - f_16_23_0 - f_17_23_0 + f_23_28_0  = 0
 c169: - f_15_24_0 - f_16_24_0 - f_17_24_0 - f_18_24_0 + f_24_29_0  = 0
 c171: f_26_1_0 + f_26_6_0 + f_26_11_0 + f_26_16_0 + f_26_21_0  = 0
 c173: - f_3_28_0 - f_8_28_0 - f_13_28_0 - f_18_28_0 - f_23_28_0  = 0
 c175: f_0_6_1 + f_0_7_1 + f_0_8_1 + f_0_9_1 - f_25_0_1  = 0
 c177: f_1_7_1 + f_1_8_1 + f_1_9_1 - f_26_1_1  = 0
 c179: f_2_8_1 + f_2_9_1  = 0
 c181: f_3_9_1 + f_3_28_1  = 0
 c183: f_4_29_1  = 0
 c185: f_5_11_1 + f_5_12_1 + f_5_13_1 + f_5_14_1 - f_25_5_1  = 0
 c187: - f_0_6_1 + f_6_12_1 + f_6_13_1 + f_6_14_1 - f_26_6_1  = 0
 c189: - f_0_7_1 - f_1_7_1 + f_7_13_1 + f_7_14_1  = 0
 c191: - f_0_8_1 - f_1_8_1 - f_2_8_1 + f_8_14_1 + f_8_28_1  = 0
 c193: - f_0_9_1 - f_1_9_1 - f_2_9_1 - f_3_9_1 + f_9_29_1  = 0
 c195: f_10_16_1 + f_10_17_1 + f_10_18_1 + f_10_19_1 - f_25_10_1  = 0
 c197: - f_5_11_1 + f_11_17_1 + f_11_18_1 + f_11_19_1 - f_26_11_1  = 0
 c199: - f_5_12_1 - f_6_12_1 + f_12_18_1 + f_12_19_1  = 0
 c201: - f_5_13_1 - f_6_13_1 - f_7_13_1 + f_13_19_1 + f_13_28_1  = 0
 c203: - f_5_14_1 - f_6_14_1 - f_7_14_1 - f_8_14_1 + f_14_29_1  = 0
 c205: f_15_21_1 + f_15_22_1 + f_15_23_1 + f_15_24_1 - f_25_15_1  = 0
 c207: - f_10_16_1 + f_16_22_1 + f_16_23_1 + f_16_24_1 - f_26_16_1  = 0
 c209: - f_10_17_1 - f_11_17_1 + f_17_23_1 + f_17_24_1  = 0
 c211: - f_10_18_1 - f_11_18_1 - f_12_18_1 + f_18_24_1 + f_18_28_1  = 0
 c213: - f_10_19_1 - f_11_19_1 - f_12_19_1 - f_13_19_1 + f_19_29_1  = 0
 c215: - f_25_20_1  = 0
 c217: - f_15_21_1 - f_26_21_1  = 0
 c219: - f_15_22_1 - f_16_22_1  = 0
 c221: - f_15_23_1 - f_16_23_1 - f_17_23_1 + f_23_28_1  = 0
 c223: - f_15_24_1 - f_16_24_1 - f_17_24_1 - f_18_24_1 + f_24_29_1  = 0
 c225: f_25_0_1 + f_25_5_1 + f_25_10_1 + f_25_15_1 + f_25_20_1  = 0
 c227: - f_4_29_1 - f_9_29_1 - f_14_29_1 - f_19_29_1 - f_24_29_1  = 0
 c229: - 55 flow + f_4_29_0 + f_9_29_0 + f_14_29_0 + f_19_29_0 + f_24_29_0  = 0
 c231: - 55 flow + f_3_28_1 + f_8_28_1 + f_13_28_1 + f_18_28_1 + f_23_28_1  = 0
Bounds
      flow >= 0.01
End
